/*********************************************
 * OPL 12.6.0.0 Data
 * Author: Adrian Rodriguez Bazaga, Pau Rodriguez Esmerats
 * Creation Date: 10/12/2017 at 07:27:29
 *********************************************/

maxConsec=8;
maxPresence=16;
maxHours=10;
minHours=2;
hours=24;
demand= [10 13 15 12 15 11 15 14 18 16 19 16 21 14 19 10 18 8 15 10 13 7 10 5  ];
nNurses=48;
